data;


param d:= 100;
param r:=5;
param p:=0.880000;
param M:=1000;
param U:=
         1         1       -2.776987e-01
         2         1        9.270159e-02
         3         1       -2.280729e-01
         4         1        1.071480e+00
         5         1        3.809021e-01
         6         1        2.894575e-01
         7         1        3.127761e-01
         8         1       -2.811485e-02
         9         1       -5.572656e-01
        10         1       -3.180312e-01
        11         1       -1.225453e-01
        12         1       -1.196100e+00
        13         1        4.763629e-01
        14         1       -2.157177e+00
        15         1       -2.322336e-01
        16         1       -6.256574e-01
        17         1        2.771604e-01
        18         1        1.422053e+00
        19         1       -4.121378e-01
        20         1       -1.284365e+00
        21         1       -4.241269e-01
        22         1        1.106347e+00
        23         1        2.048555e-01
        24         1       -1.317750e+00
        25         1       -1.324650e+00
        26         1       -2.869121e-01
        27         1       -2.185684e-01
        28         1       -9.847235e-01
        29         1        1.567735e+00
        30         1       -1.367030e+00
        31         1        1.541656e-01
        32         1        4.809728e-01
        33         1       -1.555609e+00
        34         1        9.983386e-01
        35         1        1.072831e+00
        36         1        3.500221e-01
        37         1       -1.961684e+00
        38         1       -6.640359e-01
        39         1       -3.736626e-01
        40         1        8.945657e-02
        41         1       -1.000005e+00
        42         1        9.193802e-01
        43         1        2.263260e-01
        44         1       -5.504814e-01
        45         1       -9.154001e-01
        46         1        3.744792e-01
        47         1       -3.669561e-01
        48         1       -2.658888e+00
        49         1       -3.831904e-01
        50         1       -7.432447e-01
        51         1       -9.856671e-01
        52         1       -1.222149e+00
        53         1        3.154710e-01
        54         1        3.834073e-02
        55         1       -2.394340e-01
        56         1        5.562118e-01
        57         1        8.712528e-01
        58         1        8.405797e-01
        59         1        1.763151e+00
        60         1        7.696069e-01
        61         1       -2.930113e-01
        62         1       -9.103375e-02
        63         1       -2.610388e-01
        64         1       -2.193344e-01
        65         1       -3.434055e-01
        66         1        1.050694e-01
        67         1       -3.533970e-01
        68         1        2.694775e-01
        69         1        4.090938e-01
        70         1       -1.088688e+00
        71         1        9.204330e-01
        72         1        7.699539e-01
        73         1       -1.212737e-01
        74         1       -3.034876e-01
        75         1        2.383037e+00
        76         1        1.513847e-01
        77         1        1.759031e+00
        78         1        1.864469e-01
        79         1       -4.328513e-01
        80         1       -8.628851e-01
        81         1       -4.964497e-01
        82         1       -1.461150e+00
        83         1       -2.080451e+00
        84         1       -1.689676e+00
        85         1        1.852095e+00
        86         1        6.357514e-02
        87         1       -6.408809e-01
        88         1       -1.281345e+00
        89         1        2.193444e-01
        90         1       -1.218126e+00
        91         1       -5.729419e-01
        92         1       -1.804289e+00
        93         1       -1.320149e+00
        94         1        6.463454e-01
        95         1        1.183189e-02
        96         1        7.365237e-01
        97         1        1.161990e+00
        98         1        7.146739e-01
        99         1       -4.900526e-01
       100         1       -3.472792e-01
         1         2       -3.045669e-03
         2         2        9.830284e-01
         3         2        1.776177e-01
         4         2        6.658576e-01
         5         2       -1.405326e+00
         6         2       -7.172521e-01
         7         2        4.467113e-01
         8         2       -2.085452e+00
         9         2        1.888408e-01
        10         2        1.549579e+00
        11         2       -2.541213e-01
        12         2       -1.806089e-01
        13         2       -5.296591e-02
        14         2       -1.212687e-01
        15         2        5.364042e-01
        16         2        4.127295e-01
        17         2       -1.851329e+00
        18         2       -1.078228e+00
        19         2        1.659021e+00
        20         2       -9.759459e-01
        21         2       -1.143618e+00
        22         2        7.441969e-01
        23         2       -1.601365e-01
        24         2        5.714376e-01
        25         2       -1.246288e-01
        26         2       -7.763605e-02
        27         2       -1.049012e+00
        28         2       -2.446832e+00
        29         2       -5.874426e-01
        30         2       -8.203827e-01
        31         2       -1.229518e+00
        32         2       -2.900487e+00
        33         2        1.443168e+00
        34         2       -2.490591e-02
        35         2       -1.760693e+00
        36         2        8.181727e-01
        37         2        8.297400e-01
        38         2       -7.412981e-02
        39         2        1.465535e+00
        40         2        8.262293e-01
        41         2       -1.831880e+00
        42         2        7.432879e-01
        43         2        4.854914e-01
        44         2        1.308984e+00
        45         2       -1.919545e-01
        46         2       -7.017629e-01
        47         2       -5.096203e-01
        48         2       -1.029219e-01
        49         2       -1.227570e+00
        50         2       -1.595517e+00
        51         2        5.046191e-01
        52         2        1.289897e+00
        53         2       -1.899677e+00
        54         2       -1.493506e-02
        55         2        1.471564e+00
        56         2        6.732174e-01
        57         2        1.712861e+00
        58         2       -1.111712e+00
        59         2        6.687936e-01
        60         2       -4.482854e-02
        61         2        4.520290e-02
        62         2       -5.248293e-01
        63         2       -8.973814e-01
        64         2        5.136431e-01
        65         2       -7.290392e-02
        66         2       -8.046194e-01
        67         2        1.542640e+00
        68         2        1.113727e+00
        69         2        2.021325e+00
        70         2       -7.069232e-01
        71         2        4.790340e-01
        72         2        1.120113e+00
        73         2        3.751921e-01
        74         2        5.607728e-02
        75         2        2.457285e+00
        76         2       -6.586373e-01
        77         2       -1.060994e+00
        78         2        3.436561e-01
        79         2       -5.347732e-03
        80         2        2.366328e-01
        81         2       -4.112317e-01
        82         2        8.858233e-01
        83         2        4.445754e-01
        84         2       -1.700756e+00
        85         2       -1.297499e+00
        86         2        8.832644e-01
        87         2       -1.190856e-01
        88         2       -7.060496e-01
        89         2       -5.086920e-02
        90         2        1.742684e+00
        91         2        7.295558e-02
        92         2        4.940833e-01
        93         2        2.410360e-01
        94         2        1.729873e+00
        95         2        2.480053e+00
        96         2        3.773655e-01
        97         2        2.393409e+00
        98         2       -2.312730e+00
        99         2        7.483340e-01
       100         2        4.267926e-01
         1         3       -4.900882e-01
         2         3        9.672862e-01
         3         3       -9.368484e-01
         4         3        2.568805e-01
         5         3        7.404510e-01
         6         3       -1.432367e-01
         7         3       -5.442606e-02
         8         3       -1.539775e+00
         9         3       -2.431129e-01
        10         3       -1.428991e+00
        11         3       -9.833709e-01
        12         3       -2.272966e-01
        13         3       -2.678380e+00
        14         3       -1.123856e+00
        15         3       -1.522534e+00
        16         3       -4.399426e-01
        17         3       -9.670960e-01
        18         3       -6.994479e-01
        19         3       -3.984331e-01
        20         3       -9.892589e-02
        21         3       -1.699216e-01
        22         3        2.342917e-01
        23         3        1.159797e+00
        24         3       -5.292880e-01
        25         3        1.180358e+00
        26         3       -7.605080e-01
        27         3       -1.296926e+00
        28         3       -4.233804e-02
        29         3        7.003040e-01
        30         3        1.254079e+00
        31         3        1.662080e-02
        32         3        1.146150e-02
        33         3        4.954220e-01
        34         3       -3.033976e-01
        35         3        1.414491e+00
        36         3       -1.771257e-02
        37         3        7.418528e-01
        38         3        1.191203e+00
        39         3        1.272699e+00
        40         3        4.807653e-01
        41         3        4.332899e-01
        42         3        2.360844e-01
        43         3        1.476271e+00
        44         3       -2.750355e-01
        45         3       -1.247212e+00
        46         3        5.473981e-01
        47         3       -4.642944e-01
        48         3       -9.824019e-01
        49         3        1.814778e-01
        50         3        1.758501e+00
        51         3        9.741673e-01
        52         3       -7.614722e-01
        53         3       -1.562435e+00
        54         3        5.205031e-01
        55         3        4.657973e-01
        56         3        1.344701e+00
        57         3        3.335989e-01
        58         3        6.974181e-02
        59         3        1.148903e+00
        60         3        6.143144e-01
        61         3        2.279817e-01
        62         3        1.508121e+00
        63         3       -9.472015e-01
        64         3       -2.397373e+00
        65         3        3.666173e-01
        66         3       -1.970694e-01
        67         3       -7.148936e-02
        68         3       -5.911286e-01
        69         3        1.386227e+00
        70         3        2.050942e-01
        71         3        1.172827e+00
        72         3        1.802844e-01
        73         3       -1.169323e+00
        74         3       -1.507140e+00
        75         3       -5.997069e-01
        76         3       -4.902497e-02
        77         3        1.332154e+00
        78         3        5.289867e-02
        79         3        1.279132e+00
        80         3       -5.457001e-01
        81         3        1.120246e+00
        82         3        9.685931e-01
        83         3        8.999724e-02
        84         3       -1.773509e-01
        85         3        5.294089e-01
        86         3       -1.185377e+00
        87         3        2.053039e+00
        88         3        1.015245e+00
        89         3       -1.136156e+00
        90         3       -1.218493e-01
        91         3       -3.250251e-01
        92         3        9.962691e-01
        93         3        9.565772e-01
        94         3       -1.157543e+00
        95         3       -3.955000e-01
        96         3        1.518619e-01
        97         3       -6.735779e-01
        98         3       -2.150513e-02
        99         3        6.150180e-02
       100         3       -6.885705e-01
         1         4        2.296489e+00
         2         4        1.986571e+00
         3         4       -4.322975e-01
         4         4       -4.317316e-01
         5         4        1.336574e+00
         6         4       -8.452087e-02
         7         4       -2.628128e-01
         8         4        6.625218e-01
         9         4       -5.556179e-01
        10         4       -1.257976e+00
        11         4       -4.060592e-01
        12         4        8.842485e-01
        13         4       -7.667739e-01
        14         4        7.882907e-01
        15         4        1.705058e+00
        16         4       -1.451346e+00
        17         4       -1.107365e-01
        18         4       -2.802856e+00
        19         4        8.934188e-01
        20         4       -7.126034e-01
        21         4        1.329045e-01
        22         4        2.136484e-01
        23         4        2.148780e-01
        24         4       -6.376964e-01
        25         4       -4.033660e-03
        26         4       -6.848620e-01
        27         4       -1.939552e+00
        28         4       -2.408271e-02
        29         4        6.576074e-01
        30         4        8.984767e-01
        31         4        1.336576e+00
        32         4       -9.218231e-01
        33         4       -4.171186e-01
        34         4        1.024821e+00
        35         4        1.264839e+00
        36         4        1.160463e+00
        37         4       -1.221363e+00
        38         4        1.581350e-01
        39         4       -2.215571e+00
        40         4        2.258431e-01
        41         4        7.086479e-01
        42         4       -7.654912e-01
        43         4       -5.348627e-01
        44         4       -6.391366e-01
        45         4       -1.161071e+00
        46         4       -5.636433e-01
        47         4        1.562142e+00
        48         4       -5.108309e-01
        49         4       -5.415073e-02
        50         4        1.299895e-01
        51         4        1.397039e+00
        52         4        4.166082e-01
        53         4        2.714866e-01
        54         4        1.798255e+00
        55         4        2.004139e-01
        56         4        9.119918e-01
        57         4        2.316815e-01
        58         4        1.723311e-02
        59         4        5.789243e-01
        60         4       -6.790486e-01
        61         4        1.540170e-02
        62         4       -1.504832e+00
        63         4        1.303644e-01
        64         4       -1.278309e+00
        65         4        1.120327e+00
        66         4       -2.584070e-01
        67         4        6.551466e-01
        68         4        1.317169e+00
        69         4        1.248746e+00
        70         4       -1.206571e+00
        71         4       -1.240190e-01
        72         4       -1.032869e+00
        73         4       -7.646529e-01
        74         4        1.234253e+00
        75         4        1.108182e+00
        76         4        2.177160e-01
        77         4        3.215491e-01
        78         4       -4.893711e-01
        79         4        5.589121e-01
        80         4        6.433347e-01
        81         4       -1.630757e-01
        82         4        1.075921e+00
        83         4       -2.492504e+00
        84         4        2.852616e-01
        85         4        1.321112e+00
        86         4       -4.588237e-01
        87         4        7.051109e-01
        88         4       -4.527881e-01
        89         4       -8.513444e-02
        90         4        1.053724e+00
        91         4        4.717634e-01
        92         4       -9.961201e-01
        93         4       -2.723953e-02
        94         4        8.577586e-01
        95         4       -2.232631e-01
        96         4       -2.108989e-01
        97         4        8.341527e-01
        98         4        7.362341e-01
        99         4       -2.673697e-01
       100         4        1.694942e+00
         1         5        9.601149e-01
         2         5       -1.045255e+00
         3         5        1.241186e+00
         4         5        1.914280e-01
         5         5        3.627474e-01
         6         5       -2.173534e+00
         7         5        3.350896e-01
         8         5        2.119541e-01
         9         5       -3.401395e-01
        10         5        1.436269e-03
        11         5        1.772194e-01
        12         5        7.816871e-01
        13         5        7.695792e-01
        14         5       -5.533615e-01
        15         5        8.689806e-01
        16         5        8.474959e-01
        17         5       -7.661949e-01
        18         5       -1.464351e+00
        19         5       -3.489346e-01
        20         5       -1.389106e+00
        21         5        1.011309e+00
        22         5       -5.909609e-01
        23         5        6.727177e-01
        24         5       -1.762812e+00
        25         5       -2.648121e-02
        26         5        4.998900e-01
        27         5       -4.848817e-01
        28         5        8.705432e-02
        29         5       -1.547957e-01
        30         5       -1.211667e+00
        31         5       -5.722853e-01
        32         5        1.173870e+00
        33         5       -1.177724e-01
        34         5       -5.573223e-01
        35         5        1.562758e+00
        36         5        1.639264e+00
        37         5        1.869325e+00
        38         5        8.668862e-01
        39         5       -8.011477e-02
        40         5       -1.902000e+00
        41         5       -1.567021e+00
        42         5       -1.512435e-01
        43         5        2.734731e-01
        44         5        9.581744e-01
        45         5        6.409061e-02
        46         5       -5.912225e-01
        47         5        5.825995e-01
        48         5        1.682493e+00
        49         5        1.561349e+00
        50         5        2.684150e+00
        51         5        1.357038e+00
        52         5       -3.009339e-01
        53         5        5.677437e-01
        54         5       -3.345276e-02
        55         5       -3.933551e-01
        56         5        1.385645e+00
        57         5        8.757619e-01
        58         5       -1.414137e+00
        59         5        8.197619e-01
        60         5       -8.056892e-01
        61         5       -4.722049e-01
        62         5        2.621871e-01
        63         5        5.159680e-01
        64         5        2.227147e-01
        65         5        6.785711e-02
        66         5        1.478326e+00
        67         5        8.549208e-02
        68         5        5.758365e-01
        69         5        7.489765e-01
        70         5        7.736861e-03
        71         5        7.651444e-01
        72         5       -9.437553e-03
        73         5       -1.189586e+00
        74         5        3.145797e-01
        75         5       -9.526590e-01
        76         5       -1.588086e-01
        77         5        7.913850e-01
        78         5       -6.553132e-01
        79         5       -1.742537e+00
        80         5        7.033063e-03
        81         5       -4.517576e-01
        82         5        1.344261e+00
        83         5       -9.093690e-01
        84         5        4.650697e-01
        85         5       -1.880065e+00
        86         5        5.259847e-01
        87         5        2.490181e-02
        88         5        7.187732e-01
        89         5        1.878197e-02
        90         5        1.610368e+00
        91         5        6.183095e-01
        92         5        2.364859e+00
        93         5       -1.819918e-01
        94         5        6.819568e-01
        95         5       -4.670498e-01
        96         5       -4.868453e-01
        97         5       -1.480971e-01
        98         5        1.149851e+00
        99         5       -1.431478e+00
       100         5        1.707319e+00
;

param theta:=
    1        1.513684e+00
    2       -1.314994e+00
    3        1.488843e-02
    4        1.206622e+00
    5       -1.607579e-01
;
param X_true:=
    1        2.193092e+00
    2        1.427705e+00
    3       -1.312234e+00
    4        1.973533e-01
    5        3.989627e+00
    6        1.627885e+00
    7       -4.855749e-01
    8        3.442364e+00
    9       -1.712068e+00
   10       -4.057316e+00
   11       -3.851900e-01
   12       -6.350467e-01
   13       -2.978145e-01
   14       -2.084149e+00
   15        8.376283e-01
   16       -3.384392e+00
   17        2.826249e+00
   18        4.141565e-01
   19       -1.677394e+00
   20       -1.300635e+00
   21        8.574078e-01
   22        1.052500e+00
   23        6.898777e-01
   24       -3.240980e+00
   25       -1.823877e+00
   26       -1.249407e+00
   27       -1.234325e+00
   28        1.683898e+00
   29        3.974773e+00
   30        3.058485e-01
   31        3.555746e+00
   32        3.239508e+00
   33       -4.729121e+00
   34        2.864608e+00
   35        5.235112e+00
   36        5.890043e-01
   37       -5.824692e+00
   38       -8.392586e-01
   39       -5.133688e+00
   40       -3.653128e-01
   41        2.007632e+00
   42       -4.808624e-01
   43       -9.638122e-01
   44       -3.482239e+00
   45       -2.561525e+00
   46        9.138674e-01
   47        1.899292e+00
   48       -4.788653e+00
   49        7.211391e-01
   50        7.237887e-01
   51       -6.746830e-01
   52       -3.005682e+00
   53        3.187891e+00
   54        2.259704e+00
   55       -1.987148e+00
   56        8.548186e-01
   57       -7.910194e-01
   58        2.984128e+00
   59        2.373122e+00
   60        5.436788e-01
   61       -4.053056e-01
   62       -1.283702e+00
   63        8.443573e-01
   64       -2.619377e+00
   65        9.202452e-01
   66        6.664010e-01
   67       -1.787503e+00
   68        4.328638e-01
   69       -6.328374e-01
   70       -2.172988e+00
   71        5.079201e-01
   72       -1.549765e+00
   73       -1.426878e+00
   74        8.832177e-01
   75        1.857855e+00
   76        1.382290e+00
   77        4.338047e+00
   78       -6.540343e-01
   79        3.262667e-01
   80       -8.496252e-01
   81       -3.188479e-01
   82       -2.278708e+00
   83       -6.593663e+00
   84       -5.544239e-02
   85        6.414445e+00
   86       -1.720078e+00
   87        6.330179e-02
   88       -1.655973e+00
   89        2.751416e-01
   90       -3.124596e+00
   91       -4.984362e-01
   92       -4.949677e+00
   93       -2.305319e+00
   94       -3.905084e-01
   95       -3.443100e+00
   96        4.454540e-01
   97       -3.687673e-01
   98        4.826728e+00
   99       -1.816526e+00
  100        6.751913e-01
;
param X:=
    1        6.662328e-01
    2       -5.083846e-01
    3        1.272931e+00
    4       -3.260689e-01
    5        8.790159e-01
    6       -6.136478e-01
    7       -4.855749e-01
    8       -9.622740e-01
    9        1.755040e-02
   10       -1.234951e+00
   11        1.887643e+00
   12        5.991025e-01
   13       -2.978145e-01
   14       -3.649966e-01
   15       -5.670436e-01
   16       -3.384392e+00
   17       -2.759792e-01
   18        9.286361e-01
   19       -1.879333e+00
   20       -1.300635e+00
   21        1.648068e+00
   22        5.805132e-01
   23        6.898777e-01
   24       -9.303546e-01
   25       -1.003853e+00
   26        3.448688e-01
   27       -4.306706e-01
   28        3.266727e-01
   29        6.813228e-01
   30       -2.237327e-01
   31        2.853878e-01
   32       -9.415523e-01
   33       -5.078526e-01
   34        6.995190e-01
   35        5.235112e+00
   36       -5.037815e-01
   37        4.644319e-01
   38       -8.392586e-01
   39        8.839225e-01
   40       -6.110080e-01
   41       -4.789924e-01
   42       -4.808624e-01
   43       -1.387527e-01
   44        7.426020e-01
   45        2.481144e-01
   46        9.138674e-01
   47        6.704445e-03
   48       -1.322240e+00
   49       -1.837486e+00
   50       -6.924689e-01
   51       -2.314888e-01
   52       -9.883069e-01
   53       -1.828907e-01
   54        3.179437e-01
   55       -2.299796e+00
   56       -1.417485e+00
   57       -2.945856e-01
   58       -3.518388e-01
   59       -5.392211e-01
   60       -1.279016e-01
   61       -3.129421e+00
   62        1.130177e+00
   63       -6.219489e-01
   64        3.580318e-01
   65       -9.803846e-01
   66       -9.913171e-01
   67       -6.696894e-01
   68        1.165345e+00
   69        2.891576e-01
   70       -8.973374e-01
   71        9.917878e-01
   72       -1.391655e+00
   73       -1.426878e+00
   74        5.629715e-01
   75        1.857855e+00
   76        8.365283e-01
   77        3.901476e-01
   78       -1.753506e+00
   79       -5.074278e-01
   80       -1.051691e+00
   81       -4.026160e-01
   82       -5.263764e-02
   83       -3.243915e-02
   84        7.601337e-01
   85        2.423161e-01
   86       -1.720078e+00
   87       -6.993326e-01
   88       -6.065416e-02
   89       -1.104494e-01
   90        4.580762e-02
   91       -3.496191e-01
   92       -5.087239e-01
   93       -3.808875e-01
   94       -9.310138e-01
   95       -1.818388e-01
   96       -4.187923e-01
   97       -9.242934e-01
   98        4.834215e-01
   99       -2.577707e-01
  100       -2.613174e-01
;
param outliervec:=
    1    1
    2    1
    3    1
    4    1
    5    1
    6    1
    7    0
    8    1
    9    1
   10    1
   11    1
   12    1
   13    0
   14    1
   15    1
   16    0
   17    1
   18    1
   19    1
   20    0
   21    1
   22    1
   23    0
   24    1
   25    1
   26    1
   27    1
   28    1
   29    1
   30    1
   31    1
   32    1
   33    1
   34    1
   35    0
   36    1
   37    1
   38    0
   39    1
   40    1
   41    1
   42    0
   43    1
   44    1
   45    1
   46    0
   47    1
   48    1
   49    1
   50    1
   51    1
   52    1
   53    1
   54    1
   55    1
   56    1
   57    1
   58    1
   59    1
   60    1
   61    1
   62    1
   63    1
   64    1
   65    1
   66    1
   67    1
   68    1
   69    1
   70    1
   71    1
   72    1
   73    0
   74    1
   75    0
   76    1
   77    1
   78    1
   79    1
   80    1
   81    1
   82    1
   83    1
   84    1
   85    1
   86    0
   87    1
   88    1
   89    1
   90    1
   91    1
   92    1
   93    1
   94    1
   95    1
   96    1
   97    1
   98    1
   99    1
  100    1
;